--- Job feedOptimizer.gms Start 06/12/20 20:24:35 30.2.0 r482c588 WEX-WEI x86 64bit/MS Windows
--- GAMS Parameters defined
    Input C:\Users\hasee\Documents\GitHub\GAMS-MIRO\feedopt\feedOptimizer.gms
    PageSize 0
    ScrDir C:\Users\hasee\Documents\GitHub\GAMS-MIRO\feedopt\225a\
    SysDir E:\30.2\
    LogOption 3
    ErrMsg 1
    ErrorLog 99
    IDE 1
    GDX C:\Users\hasee\Documents\GitHub\GAMS-MIRO\feedopt\res.gdx
    LstTitleLeftAligned 1
    IDCGenerateJSON conf_feedOptimizer/feedOptimizer_io.json
    IDCGenerateGDX data_feedOptimizer/default.gdx
GAMS 30.2.0   Copyright (C) 1987-2020 GAMS Development. All rights reserved
*** License has expired 3 days ago
Licensee: CS526 Advanced Linear Programming              G200210/0001AS-GEN
          Course License UW-Madison, Prof Ferris, Spring 2020        DCE515
          Evaluation license: Not for commercial or production use
--- Starting compilation
--- feedOptimizer.gms(237) 3 Mb
--- Starting execution: elapsed 0:00:00.103
--- feedOptimizer.gms(197) 4 Mb
--- Generating MIP model feedOptimizer
--- feedOptimizer.gms(199) 4 Mb
---   1 rows  1 columns  1 non-zeroes
--- Executing CPLEX: elapsed 0:00:00.222
IBM ILOG CPLEX   30.2.0 r482c588 Released Feb 07, 2020 WEI x86 64bit/MS Window
--- GAMS/Cplex licensed for continuous and discrete problems.
Cplex 12.10.0.0
Reading data...
Starting Cplex...
Space for names approximately 0.00 Mb
Use option 'names no' to turn use of names off
Version identifier: 12.10.0.0 | 2019-11-26 | 843d4de2ae
CPXPARAM_Advance                                 0
CPXPARAM_Simplex_Display                         2
CPXPARAM_Threads                                 1
CPXPARAM_Parallel                                1
CPXPARAM_Simplex_Limits_Iterations               2000000000
CPXPARAM_TimeLimit                               30
CPXPARAM_Tune_TimeLimit                          6
Tried aggregator 1 time.
LP Presolve eliminated 1 rows and 1 columns.
All rows and columns eliminated.
Presolve time = 0.00 sec. (0.00 ticks)
LP status(1): optimal
Cplex Time: 0.00sec (det. 0.00 ticks)
Optimal solution found.
Objective :           0.000000
--- Restarting execution
--- feedOptimizer.gms(199) 2 Mb
--- Reading solution for model feedOptimizer
--- Executing after solve: elapsed 0:00:00.755
--- feedOptimizer.gms(235) 3 Mb
--- GDX File C:\Users\hasee\Documents\GitHub\GAMS-MIRO\feedopt\res.gdx
--- GDX File C:\Users\hasee\Documents\GitHub\GAMS-MIRO\feedopt\data_feedOptimizer/default.gdx
*** Status: Normal completion
--- Job feedOptimizer.gms Stop 06/12/20 20:24:36 elapsed 0:00:00.774
Warning in eval(ei, envir) :
  The alias of symbol: '_scalars_out' was selected to be overwritten. However, this symbol could not be found.
TRACE [2020-06-12 20:24:46] Logging facility initialised.
DEBUG [2020-06-12 20:24:47] Database connection established.
DEBUG [2020-06-12 20:24:47] Access Control initialised.
WARN [2020-06-12 20:24:47] There are orphaned tables in your database: 'feedoptimizer__scalars_out'.
This could be caused because you used a different database schema in the past (e.g. due to different inputs and/or outputs). 
Note that you can remove orphaned database tables using the configuration mode ('Database management' section).
INFO [2020-06-12 20:24:47] New data: 'db_save_feedoptimizer.zip' is being stored in the database. Please wait a until the import is finished.
ERROR [2020-06-12 20:24:48] Problems saving MIRO data to database. Error message: 'Method ('') is not suported for loading data.'.
INFO [2020-06-12 20:24:55] Session started (model: 'feedoptimizer', user: 'hasee', workdir: 'C:/Users/hasee/Documents/GitHub/GAMS-MIRO/feedopt').
DEBUG [2020-06-12 20:24:55] Working directory was created: 'C:/Users/hasee/Documents/GitHub/GAMS-MIRO/feedopt'.
DEBUG [2020-06-12 20:24:55] Db: Data was imported from table: '_sys_metadata_feedoptimizer' (Db.importDataset).
DEBUG [2020-06-12 20:24:57] Sidebar menu item: 'inputData' selected.
DEBUG [2020-06-12 20:24:57] Loading and rendering scenarios: '6'.
DEBUG [2020-06-12 20:24:58] Db: A table named: 'feedoptimizer_result' does not exist in the database (Db.importDataset).
DEBUG [2020-06-12 20:24:58] Db: Data was imported from table: 'feedoptimizer_bigs' (Db.importDataset).
DEBUG [2020-06-12 20:24:58] Db: Data was imported from table: 'feedoptimizer_c' (Db.importDataset).
DEBUG [2020-06-12 20:24:58] Db: Data was imported from table: 'feedoptimizer_height' (Db.importDataset).
DEBUG [2020-06-12 20:24:58] Db: Data was imported from table: 'feedoptimizer_width2' (Db.importDataset).
DEBUG [2020-06-12 20:24:58] Db: Data was imported from table: 'feedoptimizer_valc' (Db.importDataset).
DEBUG [2020-06-12 20:24:58] Db: Data was imported from table: 'feedoptimizer_time' (Db.importDataset).
DEBUG [2020-06-12 20:24:58] Db: Data was imported from table: 'feedoptimizer_sponsored' (Db.importDataset).
DEBUG [2020-06-12 20:24:58] Db: Data was imported from table: 'feedoptimizer_cscore' (Db.importDataset).
DEBUG [2020-06-12 20:24:58] Db: Data was imported from table: 'feedoptimizer__scalars' (Db.importDataset).
DEBUG [2020-06-12 20:24:58] Db: A table named: '_sys_scripts_feedoptimizer' does not exist in the database (Db.importDataset).
DEBUG [2020-06-12 20:24:58] Scenario: 'New Scenario' closed.
DEBUG [2020-06-12 20:24:58] Db: Data was imported from table: '_sys_metadata_feedoptimizer' (Db.importDataset).
DEBUG [2020-06-12 20:24:58] Db: Data was imported from table: '_sys_scenlocks_feedoptimizer' (Db.importDataset).
DEBUG [2020-06-12 20:24:58] Db: 1 rows in table: '_sys_scenlocks_feedoptimizer' were deleted. (Db.deleteRows)
DEBUG [2020-06-12 20:24:59] Db: hasee: Lock was added for scenario: '6' (Scenario.lock).
DEBUG [2020-06-12 20:24:59] Dataset: bigs loaded successfully (mode: scen, overwrite: FALSE)
DEBUG [2020-06-12 20:24:59] Dataset: c loaded successfully (mode: scen, overwrite: FALSE)
DEBUG [2020-06-12 20:24:59] Dataset: height loaded successfully (mode: scen, overwrite: FALSE)
DEBUG [2020-06-12 20:24:59] Dataset: width2 loaded successfully (mode: scen, overwrite: FALSE)
DEBUG [2020-06-12 20:24:59] Dataset: valc loaded successfully (mode: scen, overwrite: FALSE)
DEBUG [2020-06-12 20:24:59] Dataset: time loaded successfully (mode: scen, overwrite: FALSE)
DEBUG [2020-06-12 20:24:59] Dataset: sponsored loaded successfully (mode: scen, overwrite: FALSE)
DEBUG [2020-06-12 20:24:59] Dataset: cscore loaded successfully (mode: scen, overwrite: FALSE)
DEBUG [2020-06-12 20:24:59] Scenario: '6' was loaded into UI
DEBUG [2020-06-12 20:25:16] Solve button clicked (model: 'feedoptimizer').
TRACE [2020-06-12 20:25:16] Dataset: All stories available saved in dataTmp.
TRACE [2020-06-12 20:25:16] Dataset: User behavior case saved in dataTmp.
TRACE [2020-06-12 20:25:17] Dataset: Story height saved in dataTmp.
TRACE [2020-06-12 20:25:17] Dataset: Story width saved in dataTmp.
TRACE [2020-06-12 20:25:17] Dataset: General score for each story saved in dataTmp.
TRACE [2020-06-12 20:25:17] Dataset: Available time for each story saved in dataTmp.
TRACE [2020-06-12 20:25:17] Dataset: sponsored stories saved in dataTmp.
TRACE [2020-06-12 20:25:17] Dataset: Story score at different scenarios saved in dataTmp.
TRACE [2020-06-12 20:25:17] Dataset: Total time saved in dataTmp.
TRACE [2020-06-12 20:25:17] Dataset: Interface height saved in dataTmp.
TRACE [2020-06-12 20:25:17] Dataset: Interface width saved in dataTmp.
TRACE [2020-06-12 20:25:17] Dataset: Feed retrieved time saved in dataTmp.
TRACE [2020-06-12 20:25:17] Dataset: Time window for freshness saved in dataTmp.
TRACE [2020-06-12 20:25:17] Dataset: Dimension of story(1/2) saved in dataTmp.
TRACE [2020-06-12 20:25:17] Dataset: Sponsor ratio saved in dataTmp.
TRACE [2020-06-12 20:25:17] Dataset: Initial ratio saved in dataTmp.
DEBUG [2020-06-12 20:25:17] Db: Data was imported from table: '_sys_attach_feedoptimizer' (Db.importDataset).
DEBUG [2020-06-12 20:25:17] Sidebar menu item: 'gamsinter' selected.
DEBUG [2020-06-12 20:25:50] Db: Data was imported from table: '_sys_attach_feedoptimizer' (Db.importDataset).
DEBUG [2020-06-12 20:25:50] Sidebar menu item: 'outputData' selected.
DEBUG [2020-06-12 20:26:24] Sidebar menu item: 'inputData' selected.
DEBUG [2020-06-12 20:26:31] Solve button clicked (model: 'feedoptimizer').
TRACE [2020-06-12 20:26:31] Dataset: All stories available saved in dataTmp.
TRACE [2020-06-12 20:26:31] Dataset: User behavior case saved in dataTmp.
TRACE [2020-06-12 20:26:31] Dataset: Story height saved in dataTmp.
TRACE [2020-06-12 20:26:31] Dataset: Story width saved in dataTmp.
TRACE [2020-06-12 20:26:31] Dataset: General score for each story saved in dataTmp.
TRACE [2020-06-12 20:26:31] Dataset: Available time for each story saved in dataTmp.
TRACE [2020-06-12 20:26:31] Dataset: sponsored stories saved in dataTmp.
TRACE [2020-06-12 20:26:31] Dataset: Story score at different scenarios saved in dataTmp.
TRACE [2020-06-12 20:26:31] Dataset: Total time saved in dataTmp.
TRACE [2020-06-12 20:26:31] Dataset: Interface height saved in dataTmp.
TRACE [2020-06-12 20:26:31] Dataset: Interface width saved in dataTmp.
TRACE [2020-06-12 20:26:31] Dataset: Feed retrieved time saved in dataTmp.
TRACE [2020-06-12 20:26:31] Dataset: Time window for freshness saved in dataTmp.
TRACE [2020-06-12 20:26:31] Dataset: Dimension of story(1/2) saved in dataTmp.
TRACE [2020-06-12 20:26:31] Dataset: Sponsor ratio saved in dataTmp.
TRACE [2020-06-12 20:26:31] Dataset: Initial ratio saved in dataTmp.
DEBUG [2020-06-12 20:26:32] Db: Data was imported from table: '_sys_attach_feedoptimizer' (Db.importDataset).
DEBUG [2020-06-12 20:26:32] Sidebar menu item: 'gamsinter' selected.
DEBUG [2020-06-12 20:27:04] Db: Data was imported from table: '_sys_attach_feedoptimizer' (Db.importDataset).
DEBUG [2020-06-12 20:27:05] Sidebar menu item: 'outputData' selected.
DEBUG [2020-06-12 20:27:30] Sidebar menu item: 'inputData' selected.
DEBUG [2020-06-12 20:27:42] Solve button clicked (model: 'feedoptimizer').
TRACE [2020-06-12 20:27:42] Dataset: All stories available saved in dataTmp.
TRACE [2020-06-12 20:27:42] Dataset: User behavior case saved in dataTmp.
TRACE [2020-06-12 20:27:42] Dataset: Story height saved in dataTmp.
TRACE [2020-06-12 20:27:42] Dataset: Story width saved in dataTmp.
TRACE [2020-06-12 20:27:42] Dataset: General score for each story saved in dataTmp.
TRACE [2020-06-12 20:27:42] Dataset: Available time for each story saved in dataTmp.
TRACE [2020-06-12 20:27:42] Dataset: sponsored stories saved in dataTmp.
TRACE [2020-06-12 20:27:42] Dataset: Story score at different scenarios saved in dataTmp.
TRACE [2020-06-12 20:27:42] Dataset: Total time saved in dataTmp.
TRACE [2020-06-12 20:27:42] Dataset: Interface height saved in dataTmp.
TRACE [2020-06-12 20:27:42] Dataset: Interface width saved in dataTmp.
TRACE [2020-06-12 20:27:42] Dataset: Feed retrieved time saved in dataTmp.
TRACE [2020-06-12 20:27:42] Dataset: Time window for freshness saved in dataTmp.
TRACE [2020-06-12 20:27:42] Dataset: Dimension of story(1/2) saved in dataTmp.
TRACE [2020-06-12 20:27:42] Dataset: Sponsor ratio saved in dataTmp.
TRACE [2020-06-12 20:27:42] Dataset: Initial ratio saved in dataTmp.
DEBUG [2020-06-12 20:27:42] Db: Data was imported from table: '_sys_attach_feedoptimizer' (Db.importDataset).
DEBUG [2020-06-12 20:27:43] Sidebar menu item: 'gamsinter' selected.
DEBUG [2020-06-12 20:27:52] Db: Data was imported from table: '_sys_attach_feedoptimizer' (Db.importDataset).
DEBUG [2020-06-12 20:27:53] Sidebar menu item: 'outputData' selected.
DEBUG [2020-06-12 20:28:18] Sidebar menu item: 'inputData' selected.
DEBUG [2020-06-12 20:28:19] hasee: Import input data button clicked.
DEBUG [2020-06-12 20:28:19] Db: Data was imported from table: '_sys_metadata_feedoptimizer' (Db.importDataset).
DEBUG [2020-06-12 20:28:25] Load local data button clicked.
DEBUG [2020-06-12 20:28:26] Dataset: bigs loaded successfully (mode: gdx, overwrite: TRUE)
DEBUG [2020-06-12 20:28:26] Dataset: c loaded successfully (mode: gdx, overwrite: TRUE)
DEBUG [2020-06-12 20:28:26] Dataset: height loaded successfully (mode: gdx, overwrite: TRUE)
DEBUG [2020-06-12 20:28:27] Dataset: width2 loaded successfully (mode: gdx, overwrite: TRUE)
DEBUG [2020-06-12 20:28:27] Dataset: valc loaded successfully (mode: gdx, overwrite: TRUE)
DEBUG [2020-06-12 20:28:27] Dataset: time loaded successfully (mode: gdx, overwrite: TRUE)
DEBUG [2020-06-12 20:28:27] Dataset: sponsored loaded successfully (mode: gdx, overwrite: TRUE)
DEBUG [2020-06-12 20:28:27] Dataset: cscore loaded successfully (mode: gdx, overwrite: TRUE)
DEBUG [2020-06-12 20:28:28] Solve button clicked (model: 'feedoptimizer').
TRACE [2020-06-12 20:28:28] Dataset: All stories available saved in dataTmp.
TRACE [2020-06-12 20:28:28] Dataset: User behavior case saved in dataTmp.
TRACE [2020-06-12 20:28:28] Dataset: Story height saved in dataTmp.
TRACE [2020-06-12 20:28:28] Dataset: Story width saved in dataTmp.
TRACE [2020-06-12 20:28:28] Dataset: General score for each story saved in dataTmp.
TRACE [2020-06-12 20:28:28] Dataset: Available time for each story saved in dataTmp.
TRACE [2020-06-12 20:28:28] Dataset: sponsored stories saved in dataTmp.
TRACE [2020-06-12 20:28:28] Dataset: Story score at different scenarios saved in dataTmp.
TRACE [2020-06-12 20:28:28] Dataset: Total time saved in dataTmp.
TRACE [2020-06-12 20:28:28] Dataset: Interface height saved in dataTmp.
TRACE [2020-06-12 20:28:28] Dataset: Interface width saved in dataTmp.
TRACE [2020-06-12 20:28:28] Dataset: Feed retrieved time saved in dataTmp.
TRACE [2020-06-12 20:28:28] Dataset: Time window for freshness saved in dataTmp.
TRACE [2020-06-12 20:28:28] Dataset: Dimension of story(1/2) saved in dataTmp.
TRACE [2020-06-12 20:28:28] Dataset: Sponsor ratio saved in dataTmp.
TRACE [2020-06-12 20:28:28] Dataset: Initial ratio saved in dataTmp.
DEBUG [2020-06-12 20:28:28] Db: Data was imported from table: '_sys_attach_feedoptimizer' (Db.importDataset).
DEBUG [2020-06-12 20:28:29] Sidebar menu item: 'gamsinter' selected.
DEBUG [2020-06-12 20:28:32] Db: Data was imported from table: '_sys_attach_feedoptimizer' (Db.importDataset).
DEBUG [2020-06-12 20:28:32] Sidebar menu item: 'outputData' selected.
DEBUG [2020-06-12 20:29:23] Sidebar menu item: 'inputData' selected.
INFO [2020-06-12 20:29:27] Session ended (model: 'feedoptimizer', user: 'hasee').
DEBUG [2020-06-12 20:29:27] Scenario: '6' unlocked.

